0 5372.04
1 5315.22
2 5254.80
3 5254.80
4 5254.80
5 5254.80
6 5194.52
7 5192.38
8 5192.38
9 5192.38
10 5192.38
11 5192.38
12 5192.38
13 5174.18
14 5154.45
15 5154.45
16 5154.45
17 5154.45
18 5154.45
19 5154.45
20 5123.01
21 5123.01
22 5123.01
23 5123.01
24 5123.01
25 5123.01
26 5120.74
27 5120.74
28 5120.74
29 5120.74
30 5120.74
31 5120.74
32 5120.74
33 5110.31
34 5110.31
35 5110.31
36 5110.31
37 5110.31
38 5110.31
39 5110.31
40 5110.31
41 5110.31
42 5110.31
43 5110.31
44 5110.31
45 5110.31
46 5110.31
47 5098.30
48 5098.30
49 5098.30
50 5098.30
51 5098.30
52 5098.30
53 5098.30
54 5098.30
55 5098.30
56 5098.30
57 5098.30
58 5098.30
59 5098.30
60 5079.16
61 5079.16
62 5079.16
63 5079.16
64 5079.16
65 5079.16
66 5079.16
67 5079.16
68 5079.16
69 5079.16
70 5079.16
71 5079.16
72 5079.16
73 5079.16
74 5064.34
75 5064.34
76 5064.33
77 5064.33
78 5064.33
79 5048.96
80 5048.96
81 5048.96
82 5048.96
83 5048.96
84 5048.96
85 5048.96
86 5048.96
87 5048.96
88 5048.96
89 5048.96
90 5048.96
91 5048.96
92 5048.96
93 5048.96
94 5048.96
95 5048.96
96 5048.78
97 5048.78
98 5048.78
99 5048.78
100 5048.78
101 5048.78
102 5048.78
103 5048.78
104 5048.78
105 5048.78
106 5048.78
107 5048.78
108 5048.78
109 5048.78
110 5048.78
111 5048.78
112 5048.78
113 5048.78
114 5048.78
115 5048.78
116 5048.78
117 5048.78
118 5048.78
119 5048.78
120 5048.78
121 5048.78
122 5044.37
123 5044.37
124 5044.37
125 5044.37
126 5044.37
127 5044.37
128 5044.37
129 5044.37
130 5044.37
131 5044.37
132 5044.37
133 5044.37
134 5044.37
135 5044.37
136 5044.37
137 5044.37
138 5044.37
139 5044.37
140 5044.37
141 5044.37
142 5044.37
143 5044.37
144 5044.37
145 5044.37
146 5044.37
147 5044.37
148 5044.37
149 5044.37
150 5044.37
151 5044.37
152 5044.37
153 5044.37
154 5029.28
155 5029.28
156 5029.28
157 5029.28
158 5029.28
159 5029.28
160 5029.28
161 5029.28
162 5029.28
163 5029.28
164 5029.28
165 5029.28
166 5029.28
167 5029.28
168 5029.28
169 5029.28
170 5029.28
171 5029.28
172 5029.28
173 5029.28
174 5029.28
175 5029.28
176 5029.28
177 5029.28
178 5029.28
179 5029.28
180 5029.28
181 5029.28
182 5029.28
183 5029.28
184 5029.28
185 5029.28
186 5029.28
187 5029.28
188 5029.28
189 5029.28
190 5029.28
191 5029.28
192 5029.28
193 5029.28
194 5029.28
195 5029.28
196 5029.28
197 5029.28
198 5029.28
199 5029.28
200 5029.28
201 5029.28
202 5029.28
203 5029.28
204 5029.28
205 5029.28
206 5029.28
207 5029.28
208 5029.28
209 5029.28
210 5029.28
211 5029.28
212 5024.99
213 5024.99
214 5024.99
215 5024.99
216 4977.13
217 4977.13
218 4977.13
219 4977.13
220 4977.13
221 4977.13
222 4977.13
223 4977.13
224 4977.13
225 4977.13
226 4977.13
227 4977.13
228 4977.13
229 4977.13
230 4977.13
231 4977.13
232 4977.13
233 4977.13
234 4977.13
235 4977.13
236 4977.13
237 4977.13
238 4977.13
239 4977.13
240 4977.13
241 4977.13
242 4977.13
243 4977.13
244 4977.13
245 4977.13
246 4977.13
247 4977.13
248 4977.13
249 4977.13
250 4977.13
251 4977.13
252 4977.13
253 4977.13
254 4977.13
255 4977.13
256 4977.13
257 4977.13
258 4977.13
259 4977.13
260 4977.13
261 4977.13
262 4977.13
263 4977.13
264 4977.13
265 4977.13
266 4977.13
267 4977.13
268 4977.13
269 4977.13
270 4977.13
271 4977.13
272 4977.13
273 4977.13
274 4977.13
275 4977.13
276 4977.13
277 4977.13
278 4977.13
279 4977.13
280 4977.13
281 4977.13
282 4977.13
283 4977.13
284 4977.13
285 4977.13
286 4977.13
287 4977.13
288 4977.13
289 4977.13
290 4977.13
291 4977.13
292 4977.13
293 4977.13
294 4977.13
295 4977.13
296 4977.13
297 4977.13
298 4977.13
299 4977.13
300 4977.13
301 4977.13
302 4977.13
303 4977.13
304 4977.13
305 4977.13
306 4977.13
307 4977.13
308 4977.13
309 4977.13
310 4977.13
311 4977.13
312 4977.13
313 4977.13
314 4977.13
315 4977.13
316 4977.13
317 4977.13
318 4977.13
319 4977.13
320 4977.13
321 4977.13
322 4977.13
323 4977.13
324 4977.13
325 4977.13
326 4977.13
327 4977.13
328 4977.13
329 4977.13
330 4977.13
331 4977.13
332 4977.13
333 4977.13
334 4977.13
335 4977.13
336 4977.13
337 4977.13
338 4977.13
339 4977.13
340 4977.13
341 4977.13
342 4977.13
343 4977.13
344 4977.13
345 4977.13
346 4977.13
347 4977.13
348 4977.13
349 4977.13
350 4977.13
351 4977.13
352 4977.13
353 4977.13
354 4977.13
355 4977.13
356 4977.13
357 4977.13
358 4977.13
359 4977.13
360 4977.13
361 4977.13
362 4977.13
363 4977.13
364 4977.13
365 4977.13
366 4977.13
367 4977.13
368 4977.13
369 4977.13
370 4977.13
371 4977.13
372 4977.13
373 4977.13
374 4977.13
375 4977.13
376 4977.13
377 4977.13
378 4977.13
379 4977.13
380 4977.13
381 4977.13
382 4977.13
383 4977.13
384 4977.13
385 4977.13
386 4977.13
387 4977.13
388 4977.13
389 4977.13
390 4977.13
391 4977.13
392 4977.13
393 4977.13
394 4977.13
395 4977.13
396 4977.13
397 4977.13
398 4977.13
399 4977.13
400 4977.13
401 4977.13
402 4977.13
403 4977.13
404 4977.13
405 4977.13
406 4977.13
407 4977.13
408 4977.13
409 4977.13
410 4977.13
411 4977.13
412 4977.13
413 4977.13
414 4977.13
415 4977.13
416 4977.13
417 4977.13
418 4977.13
419 4977.13
420 4977.13
421 4977.13
422 4977.13
423 4977.13
424 4977.13
425 4977.13
426 4977.13
427 4977.13
428 4977.13
429 4977.13
430 4977.13
431 4976.40
432 4976.40
433 4976.40
434 4976.40
435 4976.40
436 4976.40
437 4976.40
438 4976.40
439 4976.40
440 4976.40
441 4976.40
442 4976.40
443 4976.40
444 4976.40
445 4976.40
446 4976.40
447 4976.40
448 4976.40
449 4976.40
450 4976.40
451 4976.40
452 4976.40
453 4976.40
454 4976.40
455 4976.40
456 4976.40
457 4976.40
458 4976.40
459 4976.40
460 4976.40
461 4976.40
462 4976.40
463 4976.40
464 4976.40
465 4976.40
466 4976.40
467 4976.40
468 4976.40
469 4976.40
470 4976.40
471 4976.40
472 4976.40
473 4976.40
474 4976.40
475 4976.40
476 4976.40
477 4976.40
478 4976.40
479 4976.40
480 4976.40
481 4976.40
482 4976.40
483 4976.40
484 4976.40
485 4976.40
486 4976.40
487 4976.40
488 4976.40
489 4976.40
490 4976.40
491 4976.40
492 4976.40
493 4976.40
494 4976.40
495 4976.40
496 4976.40
497 4976.40
498 4976.40
499 4976.40
3 11 6 2 0 0 